TrabalhoEmGrupo/TrabalhoEmGrupo.lp
\* Problem: TrabalhoEmGrupo *\

Minimize
 fo: + Cmax

Subject To
 TrabalhosEspaco(1,1): + x(1,1,1) + x(1,2,1) + x(1,3,1) + x(1,4,1)
 + s(1,1) <= 1
 TrabalhosEspaco(1,2): + x(1,1,2) + x(1,2,2) + x(1,3,2) + x(1,4,2)
 + s(1,2) <= 1
 TrabalhosEspaco(1,3): + x(1,1,3) + x(1,2,3) + x(1,3,3) + x(1,4,3)
 + s(1,3) <= 1
 TrabalhosEspaco(1,4): + x(1,1,4) + x(1,2,4) + x(1,3,4) + x(1,4,4)
 + s(1,4) <= 1
 TrabalhosEspaco(2,1): + x(2,1,1) + x(2,2,1) + x(2,3,1) + x(2,4,1)
 + s(2,1) <= 1
 TrabalhosEspaco(2,2): + x(2,1,2) + x(2,2,2) + x(2,3,2) + x(2,4,2)
 + s(2,2) <= 1
 TrabalhosEspaco(2,3): + x(2,1,3) + x(2,2,3) + x(2,3,3) + x(2,4,3)
 + s(2,3) <= 1
 TrabalhosEspaco(2,4): + x(2,1,4) + x(2,2,4) + x(2,3,4) + x(2,4,4)
 + s(2,4) <= 1
 AlocarTrabalho(1): + x(1,1,1) + x(1,1,2) + x(1,1,3) + x(1,1,4)
 + x(2,1,1) + x(2,1,2) + x(2,1,3) + x(2,1,4) = 1
 AlocarTrabalho(2): + x(1,2,1) + x(1,2,2) + x(1,2,3) + x(1,2,4)
 + x(2,2,1) + x(2,2,2) + x(2,2,3) + x(2,2,4) = 1
 AlocarTrabalho(3): + x(1,3,1) + x(1,3,2) + x(1,3,3) + x(1,3,4)
 + x(2,3,1) + x(2,3,2) + x(2,3,3) + x(2,3,4) = 1
 AlocarTrabalho(4): + x(1,4,1) + x(1,4,2) + x(1,4,3) + x(1,4,4)
 + x(2,4,1) + x(2,4,2) + x(2,4,3) + x(2,4,4) = 1
 Fixador1(1,1,1): - 12 x(1,1,1) + a(1,1,1) <= -0
 Fixador1(1,1,2): - 12 x(1,1,2) + a(1,1,2) <= -0
 Fixador1(1,1,3): - 12 x(1,1,3) + a(1,1,3) <= -0
 Fixador1(1,1,4): - 12 x(1,1,4) + a(1,1,4) <= -0
 Fixador1(1,2,1): - 12 x(1,2,1) + a(1,2,1) <= -0
 Fixador1(1,2,2): - 12 x(1,2,2) + a(1,2,2) <= -0
 Fixador1(1,2,3): - 12 x(1,2,3) + a(1,2,3) <= -0
 Fixador1(1,2,4): - 12 x(1,2,4) + a(1,2,4) <= -0
 Fixador1(1,3,1): - 12 x(1,3,1) + a(1,3,1) <= -0
 Fixador1(1,3,2): - 12 x(1,3,2) + a(1,3,2) <= -0
 Fixador1(1,3,3): - 12 x(1,3,3) + a(1,3,3) <= -0
 Fixador1(1,3,4): - 12 x(1,3,4) + a(1,3,4) <= -0
 Fixador1(1,4,1): - 12 x(1,4,1) + a(1,4,1) <= -0
 Fixador1(1,4,2): - 12 x(1,4,2) + a(1,4,2) <= -0
 Fixador1(1,4,3): - 12 x(1,4,3) + a(1,4,3) <= -0
 Fixador1(1,4,4): - 12 x(1,4,4) + a(1,4,4) <= -0
 Fixador1(2,1,1): - 6 x(2,1,1) + a(2,1,1) <= -0
 Fixador1(2,1,2): - 6 x(2,1,2) + a(2,1,2) <= -0
 Fixador1(2,1,3): - 6 x(2,1,3) + a(2,1,3) <= -0
 Fixador1(2,1,4): - 6 x(2,1,4) + a(2,1,4) <= -0
 Fixador1(2,2,1): - 6 x(2,2,1) + a(2,2,1) <= -0
 Fixador1(2,2,2): - 6 x(2,2,2) + a(2,2,2) <= -0
 Fixador1(2,2,3): - 6 x(2,2,3) + a(2,2,3) <= -0
 Fixador1(2,2,4): - 6 x(2,2,4) + a(2,2,4) <= -0
 Fixador1(2,3,1): - 6 x(2,3,1) + a(2,3,1) <= -0
 Fixador1(2,3,2): - 6 x(2,3,2) + a(2,3,2) <= -0
 Fixador1(2,3,3): - 6 x(2,3,3) + a(2,3,3) <= -0
 Fixador1(2,3,4): - 6 x(2,3,4) + a(2,3,4) <= -0
 Fixador1(2,4,1): - 6 x(2,4,1) + a(2,4,1) <= -0
 Fixador1(2,4,2): - 6 x(2,4,2) + a(2,4,2) <= -0
 Fixador1(2,4,3): - 6 x(2,4,3) + a(2,4,3) <= -0
 Fixador1(2,4,4): - 6 x(2,4,4) + a(2,4,4) <= -0
 Fixador2(1,1,1): - 12 x(1,1,1) - 2 q(1,1) + a(1,1,1) >= -12
 Fixador2(1,1,2): - 12 x(1,1,2) - 2 q(1,2) + a(1,1,2) >= -12
 Fixador2(1,1,3): - 12 x(1,1,3) - 2 q(1,3) + a(1,1,3) >= -12
 Fixador2(1,1,4): - 12 x(1,1,4) - 2 q(1,4) + a(1,1,4) >= -12
 Fixador2(1,2,1): - 12 x(1,2,1) - 2 q(1,1) + a(1,2,1) >= -12
 Fixador2(1,2,2): - 12 x(1,2,2) - 2 q(1,2) + a(1,2,2) >= -12
 Fixador2(1,2,3): - 12 x(1,2,3) - 2 q(1,3) + a(1,2,3) >= -12
 Fixador2(1,2,4): - 12 x(1,2,4) - 2 q(1,4) + a(1,2,4) >= -12
 Fixador2(1,3,1): - 12 x(1,3,1) - 4 q(1,1) + a(1,3,1) >= -12
 Fixador2(1,3,2): - 12 x(1,3,2) - 4 q(1,2) + a(1,3,2) >= -12
 Fixador2(1,3,3): - 12 x(1,3,3) - 4 q(1,3) + a(1,3,3) >= -12
 Fixador2(1,3,4): - 12 x(1,3,4) - 4 q(1,4) + a(1,3,4) >= -12
 Fixador2(1,4,1): - 12 x(1,4,1) - 4 q(1,1) + a(1,4,1) >= -12
 Fixador2(1,4,2): - 12 x(1,4,2) - 4 q(1,2) + a(1,4,2) >= -12
 Fixador2(1,4,3): - 12 x(1,4,3) - 4 q(1,3) + a(1,4,3) >= -12
 Fixador2(1,4,4): - 12 x(1,4,4) - 4 q(1,4) + a(1,4,4) >= -12
 Fixador2(2,1,1): - 6 x(2,1,1) - q(2,1) + a(2,1,1) >= -6
 Fixador2(2,1,2): - 6 x(2,1,2) - q(2,2) + a(2,1,2) >= -6
 Fixador2(2,1,3): - 6 x(2,1,3) - q(2,3) + a(2,1,3) >= -6
 Fixador2(2,1,4): - 6 x(2,1,4) - q(2,4) + a(2,1,4) >= -6
 Fixador2(2,2,1): - 6 x(2,2,1) - q(2,1) + a(2,2,1) >= -6
 Fixador2(2,2,2): - 6 x(2,2,2) - q(2,2) + a(2,2,2) >= -6
 Fixador2(2,2,3): - 6 x(2,2,3) - q(2,3) + a(2,2,3) >= -6
 Fixador2(2,2,4): - 6 x(2,2,4) - q(2,4) + a(2,2,4) >= -6
 Fixador2(2,3,1): - 6 x(2,3,1) - 2 q(2,1) + a(2,3,1) >= -6
 Fixador2(2,3,2): - 6 x(2,3,2) - 2 q(2,2) + a(2,3,2) >= -6
 Fixador2(2,3,3): - 6 x(2,3,3) - 2 q(2,3) + a(2,3,3) >= -6
 Fixador2(2,3,4): - 6 x(2,3,4) - 2 q(2,4) + a(2,3,4) >= -6
 Fixador2(2,4,1): - 6 x(2,4,1) - 2 q(2,1) + a(2,4,1) >= -6
 Fixador2(2,4,2): - 6 x(2,4,2) - 2 q(2,2) + a(2,4,2) >= -6
 Fixador2(2,4,3): - 6 x(2,4,3) - 2 q(2,3) + a(2,4,3) >= -6
 Fixador2(2,4,4): - 6 x(2,4,4) - 2 q(2,4) + a(2,4,4) >= -6
 Makespan(1): + 10 s(1,1) + 10 s(1,2) + 10 s(1,3) + 10 s(1,4) - Cmax
 + a(1,1,1) + a(1,1,2) + a(1,1,3) + a(1,1,4) + a(1,2,1) + a(1,2,2)
 + a(1,2,3) + a(1,2,4) + a(1,3,1) + a(1,3,2) + a(1,3,3) + a(1,3,4)
 + a(1,4,1) + a(1,4,2) + a(1,4,3) + a(1,4,4) <= -0
 Makespan(2): + 10 s(2,1) + 10 s(2,2) + 10 s(2,3) + 10 s(2,4) - Cmax
 + a(2,1,1) + a(2,1,2) + a(2,1,3) + a(2,1,4) + a(2,2,1) + a(2,2,2)
 + a(2,2,3) + a(2,2,4) + a(2,3,1) + a(2,3,2) + a(2,3,3) + a(2,3,4)
 + a(2,4,1) + a(2,4,2) + a(2,4,3) + a(2,4,4) <= -0
 IncrementodeTempo(1,1,1): 0 x(1,1,1) >= -0
 IncrementodeTempo(1,1,2): - 0.075 x(1,1,1) + 0.075 s(1,1) - 0.3 q(1,1)
 + q(1,2) >= -0.075
 IncrementodeTempo(1,1,3): - 0.075 x(1,1,2) + 0.075 s(1,2) - 0.3 q(1,2)
 + q(1,3) >= -0.075
 IncrementodeTempo(1,1,4): - 0.075 x(1,1,3) + 0.075 s(1,3) - 0.3 q(1,3)
 + q(1,4) >= -0.075
 IncrementodeTempo(1,2,1): 0 x(1,1,1) >= -0
 IncrementodeTempo(1,2,2): - 0.075 x(1,2,1) + 0.075 s(1,1) - 0.5 q(1,1)
 + q(1,2) >= -0.075
 IncrementodeTempo(1,2,3): - 0.075 x(1,2,2) + 0.075 s(1,2) - 0.5 q(1,2)
 + q(1,3) >= -0.075
 IncrementodeTempo(1,2,4): - 0.075 x(1,2,3) + 0.075 s(1,3) - 0.5 q(1,3)
 + q(1,4) >= -0.075
 IncrementodeTempo(1,3,1): 0 x(1,1,1) >= -0
 IncrementodeTempo(1,3,2): - 0.075 x(1,3,1) + 0.075 s(1,1) - 0.5 q(1,1)
 + q(1,2) >= -0.075
 IncrementodeTempo(1,3,3): - 0.075 x(1,3,2) + 0.075 s(1,2) - 0.5 q(1,2)
 + q(1,3) >= -0.075
 IncrementodeTempo(1,3,4): - 0.075 x(1,3,3) + 0.075 s(1,3) - 0.5 q(1,3)
 + q(1,4) >= -0.075
 IncrementodeTempo(1,4,1): 0 x(1,1,1) >= -0
 IncrementodeTempo(1,4,2): - 0.075 x(1,4,1) + 0.075 s(1,1) - q(1,1)
 + q(1,2) >= -0.075
 IncrementodeTempo(1,4,3): - 0.075 x(1,4,2) + 0.075 s(1,2) - q(1,2)
 + q(1,3) >= -0.075
 IncrementodeTempo(1,4,4): - 0.075 x(1,4,3) + 0.075 s(1,3) - q(1,3)
 + q(1,4) >= -0.075
 IncrementodeTempo(2,1,1): 0 x(1,1,1) >= -0
 IncrementodeTempo(2,1,2): - 0.03 x(2,1,1) + 0.03 s(2,1) - q(2,1)
 + q(2,2) >= -0.03
 IncrementodeTempo(2,1,3): - 0.03 x(2,1,2) + 0.03 s(2,2) - q(2,2)
 + q(2,3) >= -0.03
 IncrementodeTempo(2,1,4): - 0.03 x(2,1,3) + 0.03 s(2,3) - q(2,3)
 + q(2,4) >= -0.03
 IncrementodeTempo(2,2,1): 0 x(1,1,1) >= -0
 IncrementodeTempo(2,2,2): - 0.03 x(2,2,1) + 0.03 s(2,1) - 0.2 q(2,1)
 + q(2,2) >= -0.03
 IncrementodeTempo(2,2,3): - 0.03 x(2,2,2) + 0.03 s(2,2) - 0.2 q(2,2)
 + q(2,3) >= -0.03
 IncrementodeTempo(2,2,4): - 0.03 x(2,2,3) + 0.03 s(2,3) - 0.2 q(2,3)
 + q(2,4) >= -0.03
 IncrementodeTempo(2,3,1): 0 x(1,1,1) >= -0
 IncrementodeTempo(2,3,2): - 0.03 x(2,3,1) + 0.03 s(2,1) - 0.5 q(2,1)
 + q(2,2) >= -0.03
 IncrementodeTempo(2,3,3): - 0.03 x(2,3,2) + 0.03 s(2,2) - 0.5 q(2,2)
 + q(2,3) >= -0.03
 IncrementodeTempo(2,3,4): - 0.03 x(2,3,3) + 0.03 s(2,3) - 0.5 q(2,3)
 + q(2,4) >= -0.03
 IncrementodeTempo(2,4,1): 0 x(1,1,1) >= -0
 IncrementodeTempo(2,4,2): - 0.03 x(2,4,1) + 0.03 s(2,1) - 0.3 q(2,1)
 + q(2,2) >= -0.03
 IncrementodeTempo(2,4,3): - 0.03 x(2,4,2) + 0.03 s(2,2) - 0.3 q(2,2)
 + q(2,3) >= -0.03
 IncrementodeTempo(2,4,4): - 0.03 x(2,4,3) + 0.03 s(2,3) - 0.3 q(2,3)
 + q(2,4) >= -0.03
 Performance(1): + q(1,1) = 1
 Performance(2): + q(2,1) = 1

Bounds
 0 <= x(1,1,1) <= 1
 0 <= x(1,2,1) <= 1
 0 <= x(1,3,1) <= 1
 0 <= x(1,4,1) <= 1
 0 <= x(1,1,2) <= 1
 0 <= x(1,2,2) <= 1
 0 <= x(1,3,2) <= 1
 0 <= x(1,4,2) <= 1
 0 <= x(1,1,3) <= 1
 0 <= x(1,2,3) <= 1
 0 <= x(1,3,3) <= 1
 0 <= x(1,4,3) <= 1
 0 <= x(1,1,4) <= 1
 0 <= x(1,2,4) <= 1
 0 <= x(1,3,4) <= 1
 0 <= x(1,4,4) <= 1
 0 <= x(2,1,1) <= 1
 0 <= x(2,2,1) <= 1
 0 <= x(2,3,1) <= 1
 0 <= x(2,4,1) <= 1
 0 <= x(2,1,2) <= 1
 0 <= x(2,2,2) <= 1
 0 <= x(2,3,2) <= 1
 0 <= x(2,4,2) <= 1
 0 <= x(2,1,3) <= 1
 0 <= x(2,2,3) <= 1
 0 <= x(2,3,3) <= 1
 0 <= x(2,4,3) <= 1
 0 <= x(2,1,4) <= 1
 0 <= x(2,2,4) <= 1
 0 <= x(2,3,4) <= 1
 0 <= x(2,4,4) <= 1
 0 <= s(1,1) <= 1
 0 <= s(1,2) <= 1
 0 <= s(1,3) <= 1
 0 <= s(1,4) <= 1
 0 <= s(2,1) <= 1
 0 <= s(2,2) <= 1
 0 <= s(2,3) <= 1
 0 <= s(2,4) <= 1
 q(1,1) >= 1
 q(1,2) >= 1
 q(1,3) >= 1
 q(1,4) >= 1
 q(2,1) >= 1
 q(2,2) >= 1
 q(2,3) >= 1
 q(2,4) >= 1

Generals
 x(1,1,1)
 x(1,2,1)
 x(1,3,1)
 x(1,4,1)
 x(1,1,2)
 x(1,2,2)
 x(1,3,2)
 x(1,4,2)
 x(1,1,3)
 x(1,2,3)
 x(1,3,3)
 x(1,4,3)
 x(1,1,4)
 x(1,2,4)
 x(1,3,4)
 x(1,4,4)
 x(2,1,1)
 x(2,2,1)
 x(2,3,1)
 x(2,4,1)
 x(2,1,2)
 x(2,2,2)
 x(2,3,2)
 x(2,4,2)
 x(2,1,3)
 x(2,2,3)
 x(2,3,3)
 x(2,4,3)
 x(2,1,4)
 x(2,2,4)
 x(2,3,4)
 x(2,4,4)
 s(1,1)
 s(1,2)
 s(1,3)
 s(1,4)
 s(2,1)
 s(2,2)
 s(2,3)
 s(2,4)

End
